Pt4
1.0
   3.9431503618848787    0.0000000000000000    0.0000000000000002
   0.0000000000000006    3.9431503618848787    0.0000000000000002
   0.0000000000000000    0.0000000000000000    3.9431503618848787
Pt
4
direct
   0.0000000000000000    0.0000000000000000    0.0000000000000000 Pt
   0.0000000000000000    0.5000000000000000    0.5000000000000000 Pt
   0.5000000000000000    0.0000000000000000    0.5000000000000000 Pt
   0.5000000000000000    0.5000000000000000    0.0000000000000000 Pt
