Ag4
1.0
   4.1043563611480929    0.0000000000000000    0.0000000000000003
   0.0000000000000007    4.1043563611480929    0.0000000000000003
   0.0000000000000000    0.0000000000000000    4.1043563611480929
Ag
4
direct
   0.0000000000000000    0.0000000000000000    0.0000000000000000 Ag
   0.0000000000000000    0.5000000000000000    0.5000000000000000 Ag
   0.5000000000000000    0.0000000000000000    0.5000000000000000 Ag
   0.5000000000000000    0.5000000000000000    0.0000000000000000 Ag
