i2a=[H] ; _H2
 1.000000000000000
 10.000000   0.000000   0.000000
  0.000000  11.000000   0.000000
  0.000000   0.000000  12.000000
H 
2 
Direct
   0.0000000000000000   0.0000000000000000   0.0000000000000000
   0.0000000000000000   0.0000000000000000   0.0616666666666667
