Pd4
1.0
   3.9173015749846063    0.0000000000000000    0.0000000000000002
   0.0000000000000006    3.9173015749846063    0.0000000000000002
   0.0000000000000000    0.0000000000000000    3.9173015749846063
Pd
4
direct
   0.0000000000000000    0.0000000000000000    0.0000000000000000 Pd
   0.0000000000000000    0.5000000000000000    0.5000000000000000 Pd
   0.5000000000000000    0.0000000000000000    0.5000000000000000 Pd
   0.5000000000000000    0.5000000000000000    0.0000000000000000 Pd
